1,1
2,1
3,1
4,1
5,1
6,1
7,1
8,1
9,1
10,1
11,1
12,1
13,1
14,1
15,1
16,1
17,1
18,1
19,1
20,1
21,1
22,1
23,1
24,0
25,1
26,0
27,1
28,1
29,1
30,1
31,1
32,1
33,0
34,0
35,1
36,0
37,0
38,1
39,1
40,1
41,1
42,0
43,1
44,1
45,1
46,0
47,0
48,1
49,1
50,0
51,0
52,0
53,0
54,0
55,0
56,0
57,1
58,1
59,0
60,0
61,0
62,1
63,1
64,1
65,1
66,1
67,0
68,1
69,1
70,1
71,1
72,1
73,1
74,0
75,0
76,0
77,0
78,0
79,0
80,0
81,0
82,0
83,1
84,1
85,1
86,0
87,0
88,0
89,0
90,0
91,1
92,1
93,0
94,1
95,1
96,1
97,1
98,1
99,1
100,1
101,1
102,1
103,1
104,1
105,1
106,1
107,1
108,1
109,1
110,1
111,0
112,1
113,0
114,0
115,0
116,0
117,0
118,1
119,0
120,0
121,0
122,0
123,0
124,1
125,0
126,0
127,0
128,0
129,0
130,0
131,0
132,0
133,0
134,0
135,0
136,0
137,0
138,0
139,0
140,0
141,1
142,0
143,0
144,0
145,0
146,0
147,0
148,1
149,0
150,1
151,1
152,1
153,0
154,1
155,1
156,0
157,1
158,1
159,0
160,1
161,0
162,1
163,1
164,1
165,1
166,1
167,1
168,0
169,1
170,0
171,1
172,1
173,1
174,1
175,0
176,1
177,0
178,1
179,1
180,1
181,0
182,0
183,0
184,1
185,1
186,1
187,1
188,0
189,0
190,0
191,0
192,0
193,0
194,0
195,0
196,0
197,1
198,1
199,0
200,0
201,0
202,0
203,0
204,1
205,1
206,0
207,0
208,0
209,0
210,1
211,0
212,0
213,0
214,0
215,0
216,0
217,0
218,0
219,1
220,0
221,0
222,0
223,0
224,0
225,1
226,0
227,1
228,1
229,1
230,0
231,1
232,0
233,0
234,1
235,1
236,1
237,1
238,1
239,0
240,1
241,1
242,0
243,0
244,0
245,0
246,0
247,0
248,0
249,0
250,1
251,1
252,0
253,0
254,0
255,0
256,0
257,0
258,0
259,0
260,0
261,0
262,0
263,0
264,0
265,0
266,0
267,0
268,0
269,0
270,0
271,0
272,0
273,0
274,0
275,0
276,0
277,0
278,0
279,0
280,0
281,0
282,0
283,0
284,0
285,0
286,1
287,0
288,0
289,0
290,0
291,0
292,0
293,0
294,0
295,0
296,1
297,0
298,0
299,1
300,0
301,0
302,0
303,0
304,0
305,0
306,0
307,0
308,0
309,1
310,1
311,0
312,0
313,0
314,1
315,1
316,1
317,1
318,1
319,1
320,1
321,1
322,1
323,1
324,1
325,1
326,1
327,1
328,1
329,1
330,1
331,1
332,1
333,1
334,1
335,1
336,0
337,1
338,1
339,1
340,1
341,1
342,1
343,1
344,1
345,0
346,0
347,0
348,0
349,0
350,0
351,0
352,1
353,0
354,0
355,0
356,0
357,0
358,0
359,1
360,1
361,1
362,1
363,1
364,1
365,1
366,1
367,1
368,1
369,0
370,0
371,1
372,1
373,0
374,1
375,0
376,0
377,0
378,0
379,1
380,1
381,1
382,0
383,1
384,0
385,0
386,1
387,1
388,1
389,1
390,1
391,1
392,1
393,1
394,1
395,1
396,1
397,1
398,1
399,1
400,0
401,0
402,0
403,0
404,1
405,0
406,0
407,0
408,1
409,1
410,1
411,1
412,1
413,1
414,0
415,0
416,0
417,0
418,0
419,0
420,0
421,0
422,0
423,0
424,0
425,0
426,0
427,0
428,0
429,0
430,0
431,0
432,0
433,0
434,0
435,0
436,0
437,1
438,1
439,1
440,1
441,0
442,1
443,1
446,1
447,1
449,1
451,1
458,1
459,1
460,0
461,0
462,0
463,0
464,0
465,0
466,0
467,0
468,0
469,0
470,0
471,0
472,1
474,1
475,1
476,1
477,1
479,1
480,0
481,1
482,1
483,1
484,1
485,1
486,1
487,1
488,1
489,1
490,0
491,0
492,0
493,0
494,0
495,0
496,1
497,0
498,0
499,0
500,1
501,1
502,1
503,0
504,0
505,0
506,0
507,0
508,0
509,0
510,1
511,1
512,1
513,1
514,1
515,1
516,1
517,1
518,1
519,1
520,1
521,0
522,0
523,1
524,1
525,1
526,0
527,1
528,1
529,1
530,1
531,1
532,1
533,1
534,1
535,1
536,1
537,1
538,1
539,1
540,0
541,0
542,1
543,1
544,1
545,0
546,0
547,1
548,0
549,1
550,1
551,1
552,0
553,0
554,1
555,1
556,1
557,1
558,1
559,1
560,1
561,0
562,0
563,1
564,0
565,1
566,1
567,1
568,1
569,1
570,0
571,0
572,0
573,0
574,0
575,0
576,0
577,0
578,0
579,0
580,0
581,1
582,0
583,1
584,1
585,1
586,1
587,1
588,0
589,0
590,0
591,0
592,0
593,0
594,0
595,0
596,0
597,0
598,0
599,0
600,0
601,0
602,0
603,0
604,0
605,0
606,0
607,0
608,0
609,0
610,0
611,0
612,0
613,0
614,0
615,0
616,0
617,0
618,0
619,0
620,0
621,0
622,0
623,0
624,0
625,0
626,0
627,0
628,0
629,0
630,0
631,0
632,0
633,1
634,0
635,1
636,1
637,1
638,0
639,0
640,0
641,0
642,0
643,0
644,0
645,0
646,0
647,0
648,0
649,0
650,0
651,0
652,0
653,0
654,0
655,0
656,1
657,1
658,0
659,0
660,0
661,1
662,0
663,0
664,0
665,0
666,0
667,0
668,0
669,0
670,1
671,0
672,1
673,0
674,1
675,1
676,1
677,1
678,0
679,0
680,0
681,1
682,1
683,1
684,0
685,1
686,1
687,0
688,0
689,0
690,0
691,1
692,1
693,1
694,1
695,0
696,0
697,0
698,0
699,0
700,1
701,0
702,0
703,1
704,0
705,0
706,0
707,1
708,0
709,0
710,1
711,0
712,0
713,0
714,0
715,0
716,0
717,1
718,1
719,1
720,1
721,0
722,1
723,1
724,1
725,0
726,0
727,0
728,1
729,0
730,1
731,1
732,1
733,0
734,0
735,0
736,1
737,0
738,0
739,1
740,1
741,0
742,1
743,1
744,0
745,1
746,1
747,1
748,1
749,0
750,0
751,0
752,1
753,0
754,1
755,0
756,0
757,1
758,0
759,1
760,1
761,1
762,0
763,1
764,1
765,0
766,0
767,0
768,0
769,0
770,0
771,1
772,1
773,0
774,0
775,0
776,0
777,0
778,1
779,0
780,0
781,0
782,0
783,0
784,0
785,0
786,0
787,1
788,0
789,0
790,0
791,0
792,0
793,0
794,0
795,0
796,1
797,0
798,0
799,0
800,0
801,1
802,0
803,0
804,0
805,0
806,0
807,0
808,0
809,0
810,0
811,0
812,0
813,1
814,0
815,0
816,0
817,0
818,0
819,0
820,0
821,1
822,1
823,1
824,1
825,1
826,1
827,1
828,1
829,1
830,1
831,1
832,0
833,0
834,1
835,1
836,0
837,0
838,1
839,0
840,0
841,1
842,1
843,0
844,1
845,0
846,1
847,1
848,0
849,0
850,0
851,1
852,0
853,0
854,0
855,0
856,0
857,0
858,0
859,0
860,0
861,1
862,0
863,1
864,0
865,1
866,1
867,1
868,0
869,1
870,0
871,0
872,0
873,0
874,0
875,1
876,1
877,1
878,1
879,1
880,1
881,1
882,1
883,1
884,1
885,1
886,1
887,0
888,1
889,1
890,1
891,0
892,0
893,1
894,1
895,1
896,0
897,0
898,0
899,1
900,0
